p cnf 10 50
3 9 5 0
-3 2 -4 0
-1 -9 -4 0
1 3 -8 0
10 9 6 0
-5 -7 3 0
-6 9 -8 0
-1 -9 -7 0
-5 -2 7 0
-7 -8 4 0
6 9 -1 0
-8 10 -2 0
3 -8 -10 0
3 -9 -6 0
-1 10 3 0
-7 -10 9 0
-6 2 10 0
3 2 1 0
2 -6 7 0
6 -1 -5 0
9 -8 6 0
3 5 7 0
7 -5 6 0
10 -3 -5 0
4 -7 3 0
6 -10 -7 0
-8 6 -1 0
1 7 6 0
-2 -3 7 0
-2 -9 6 0
7 -6 -1 0
6 3 7 0
10 -6 5 0
-8 5 6 0
-4 8 -1 0
-5 7 10 0
-5 6 8 0
1 -9 7 0
6 -1 3 0
9 -1 3 0
-10 -1 8 0
-3 5 4 0
-8 10 7 0
4 -10 7 0
-2 -4 1 0
1 -9 3 0
8 2 -6 0
-3 -6 4 0
2 3 1 0
-1 -8 -4 0